NAME : local_10
TYPE : ATSP
DIMENSION : 7
EDGE_WEIGHT_TYPE : EXPLICIT
EDGE_WEIGHT_FORMAT : FULL_MATRIX
EDGE_WEIGHT_SECTION
0 807 473 771 10000000 571 529 
0 0 10000000 10000000 695 991 768 
0 10000000 0 521 10000000 493 615 
0 10000000 521 0 10000000 910 1072 
0 695 10000000 10000000 0 1057 815 
0 991 493 910 1023 0 234 
0 10000000 10000000 10000000 10000000 10000000 0 
EOF